NAME:  br17f.12 
TYPE:  AHPP-TW 
COMMENT: br17.atsp + random time windows (N. Ascheuer, 1994) 
DIMENSION: 19 
EDGE_WEIGHT_TYPE: EXPLICIT 
EDGE_WEIGHT_FORMAT: FULL_MATRIX 
TIME_WINDOW_SECTION 
   1 :    0   [   0,    0]
   2 :   35   [   0, 9999999]
   3 :   19   [ 151,  285]
   4 :   38   [ 234,  370]
   5 :   39   [   0, 9999999]
   6 :   36   [ 512,  620]
   7 :   16   [   0, 9999999]
   8 :   28   [   0,  136]
   9 :   18   [ 365,  491]
  10 :   15   [ 559,  669]
  11 :   38   [ 288,  398]
  12 :   39   [   0, 9999999]
  13 :   36   [ 409,  555]
  14 :   23   [ 223,  329]
  15 :   20   [ 333,  435]
  16 :   40   [   0,  140]
  17 :   37   [   7,  129]
  18 :   31   [   0, 9999999]
  19 :    0   [13333332, 19999998]
EDGE_WEIGHT_SECTION 
  0   0   0   0   0   0   0   0   0   0   0   0   0   0   0   0   0   0   0 
  0   0   3   5  48  48   8   8   5   5   3   3   0   3   5   8   8   5   0 
  0   3   0   3  48  48   8   8   5   5   0   0   3   0   3   8   8   5   0 
  0   5   3   0  72  72  48  48  24  24   3   3   5   3   0  48  48  24   0 
  0  48  48  74   0   0   6   6  12  12  48  48  48  48  74   6   6  12   0 
  0  48  48  74   0   0   6   6  12  12  48  48  48  48  74   6   6  12   0 
  0   8   8  50   6   6   0   0   8   8   8   8   8   8  50   0   0   8   0 
  0   8   8  50   6   6   0   0   8   8   8   8   8   8  50   0   0   8   0 
  0   5   5  26  12  12   8   8   0   0   5   5   5   5  26   8   8   0   0 
  0   5   5  26  12  12   8   8   0   0   5   5   5   5  26   8   8   0   0 
  0   3   0   3  48  48   8   8   5   5   0   0   3   0   3   8   8   5   0 
  0   3   0   3  48  48   8   8   5   5   0   0   3   0   3   8   8   5   0 
  0   0   3   5  48  48   8   8   5   5   3   3   0   3   5   8   8   5   0 
  0   3   0   3  48  48   8   8   5   5   0   0   3   0   3   8   8   5   0 
  0   5   3   0  72  72  48  48  24  24   3   3   5   3   0  48  48  24   0 
  0   8   8  50   6   6   0   0   8   8   8   8   8   8  50   0   0   8   0 
  0   8   8  50   6   6   0   0   8   8   8   8   8   8  50   0   0   8   0 
  0   5   5  26  12  12   8   8   0   0   5   5   5   5  26   8   8   0   0 
  0   0   0   0   0   0   0   0   0   0   0   0   0   0   0   0   0   0   0 
EOF 
